Timesteps: 1
s UNSATISFIABLE
real 0.10
user 0.01
sys 0.00
Timesteps: 2
s UNSATISFIABLE
real 0.16
user 0.02
sys 0.00
Timesteps: 3
s UNSATISFIABLE
real 0.16
user 0.05
sys 0.00
Timesteps: 4
s UNSATISFIABLE
real 0.15
user 0.07
sys 0.00
Timesteps: 5
s UNSATISFIABLE
real 0.31
user 0.20
sys 0.00
Timesteps: 6
s UNSATISFIABLE
real 0.32
user 0.24
sys 0.01
Timesteps: 7
s UNSATISFIABLE
real 0.34
user 0.24
sys 0.01
Timesteps: 8
s UNSATISFIABLE
real 0.84
user 0.71
sys 0.01
Timesteps: 9
s UNSATISFIABLE
real 1.54
user 1.41
sys 0.00
Timesteps: 10
s UNSATISFIABLE
real 1.74
user 1.58
sys 0.01
Timesteps: 11
s UNSATISFIABLE
real 1.34
user 1.18
sys 0.00
Timesteps: 12
s UNSATISFIABLE
real 2.17
user 1.98
sys 0.01
Timesteps: 13
s UNSATISFIABLE
real 4.92
user 4.68
sys 0.01
Timesteps: 14
s UNSATISFIABLE
real 7.38
user 7.14
sys 0.03
Timesteps: 15
s UNSATISFIABLE
real 12.52
user 12.23
sys 0.03
Timesteps: 16
s UNSATISFIABLE
real 9.52
user 9.21
sys 0.04
Timesteps: 17
s UNSATISFIABLE
real 12.00
user 11.68
sys 0.03
Timesteps: 18
s UNSATISFIABLE
real 12.18
user 11.83
sys 0.04
Timesteps: 19
s UNSATISFIABLE
real 11.97
user 11.62
sys 0.05
Timesteps: 20
s UNSATISFIABLE
real 12.05
user 11.67
sys 0.06
Timesteps: 21
s UNSATISFIABLE
real 12.20
user 11.81
sys 0.06
Timesteps: 22
s UNSATISFIABLE
real 14.58
user 14.15
sys 0.06
Timesteps: 23
s UNSATISFIABLE
real 17.29
user 16.82
sys 0.07
Timesteps: 24
s UNSATISFIABLE
real 14.58
user 14.14
sys 0.05
Timesteps: 25
s UNSATISFIABLE
real 24.00
user 23.42
sys 0.08
Timesteps: 26
s UNSATISFIABLE
real 18.02
user 17.52
sys 0.08
Timesteps: 27
s UNSATISFIABLE
real 24.42
user 23.89
sys 0.07
Timesteps: 28
s UNSATISFIABLE
real 30.73
user 30.14
sys 0.11
Timesteps: 29
s UNSATISFIABLE
real 34.45
user 33.83
sys 0.11
Timesteps: 30
s UNSATISFIABLE
real 66.83
user 65.32
sys 0.18
Timesteps: 31
s UNSATISFIABLE
real 76.03
user 74.44
sys 0.19
Timesteps: 32
s UNSATISFIABLE
real 75.48
user 73.88
sys 0.17
Timesteps: 33
s UNSATISFIABLE
real 68.41
user 66.90
sys 0.17
Timesteps: 34
s UNSATISFIABLE
real 93.75
user 92.75
sys 0.20
Timesteps: 35
s UNSATISFIABLE
real 132.58
user 130.59
sys 0.24
Timesteps: 36
s UNSATISFIABLE
real 192.21
user 189.78
sys 0.29
Timesteps: 37
s UNSATISFIABLE
real 230.69
user 228.00
sys 0.33
Timesteps: 38
s UNSATISFIABLE
real 281.70
user 278.66
sys 0.42
Timesteps: 39
s UNSATISFIABLE
real 299.49
user 296.36
sys 0.47
Timesteps: 40
s UNSATISFIABLE
real 372.60
user 369.00
sys 0.53
Timesteps: 41
s UNSATISFIABLE
real 288.41
user 286.37
sys 0.45
Timesteps: 42
s UNSATISFIABLE
real 325.19
user 323.03
sys 0.47
Timesteps: 43
s UNSATISFIABLE
real 406.70
user 404.06
sys 0.59
Timesteps: 44
